100
    1   937   937
    2   771   771
    3   253   253
    4   876   876
    5   675   675
    6   877   877
    7   772   772
    8   705   705
    9   165   165
   10   991   991
   11   219   219
   12   782   782
   13   254   254
   14   271   271
   15   957   957
   16   633   633
   17   326   326
   18   460   460
   19   867   867
   20   832   832
   21   357   357
   22   148   148
   23    68    68
   24   336   336
   25    53    53
   26   680   680
   27   317   317
   28   559   559
   29    94    94
   30   268   268
   31   214   214
   32   449   449
   33   958   958
   34   179   179
   35   593   593
   36    47    47
   37   938   938
   38   896   896
   39   815   815
   40   951   951
   41   470   470
   42   543   543
   43   545   545
   44   532   532
   45   205   205
   46   689   689
   47   232   232
   48   173   173
   49   638   638
   50   390   390
   51   921   921
   52   180   180
   53    35    35
   54   861   861
   55   665   665
   56   837   837
   57   183   183
   58   623   623
   59    16    16
   60    62    62
   61   803   803
   62   570   570
   63   829   829
   64    45    45
   65   477   477
   66   817   817
   67   598   598
   68   300   300
   69   301   301
   70   601   601
   71   210   210
   72    42    42
   73    29    29
   74   286   286
   75   614   614
   76   348   348
   77   821   821
   78   908   908
   79   856   856
   80   241   241
   81   576   576
   82    73    73
   83   195   195
   84   115   115
   85   831   831
   86   743   743
   87   543   543
   88   344   344
   89   960   960
   90   104   104
   91   756   756
   92    48    48
   93   979   979
   94   586   586
   95   155   155
   96   530   530
   97   488   488
   98   266   266
   99   633   633
  100   367   367
32887
